c This is a random SAT instance with 10 variables and 20 clauses
p cnf 10 20
-6 -5 1 -9 -2 10 3 -7 7 0
5 9 6 -3 -10 7 2 4 -8 0
-10 6 5 8 -8 4 0
-2 10 -10 -5 1 4 5 0
-3 0
-7 -3 -9 1 8 -1 5 -6 0
-9 5 9 -3 4 -4 0
-4 -1 7 -2 9 5 0
-4 -1 6 -10 1 7 0
5 0
-7 0
7 -1 -4 2 3 5 -6 6 0
1 4 -5 -3 9 6 -7 5 -6 0
-9 7 6 -4 -2 -1 -6 10 0
-3 -8 -1 -4 7 4 -5 3 0
5 10 -3 0
3 6 0
7 9 -3 -7 5 -4 6 0
-3 -2 6 1 0
-5 -6 -8 9 0